objective value:                         12981.481309
t_C0002                                             1 	(obj:374.428986)
t_C0003                                             1 	(obj:518.659973)
t_C0008                                             1 	(obj:74.9151)
t_C0012                                             1 	(obj:1254.77002)
t_C0016                                             1 	(obj:501.90799)
t_C0019                                             1 	(obj:258.095001)
t_C0027                                             1 	(obj:178.042007)
t_C1738                                             1 	(obj:489.544006)
t_C3526                                             1 	(obj:719.526001)
t_C15284                                            1 	(obj:1071.430054)
t_C16796                                            1 	(obj:715.502014)
t_C18859                                            1 	(obj:5567.390137)
t_C20033                                            1 	(obj:1257.27002)
